50
200 200
1 154 647
2 153 57
3 150 975
4 149 887
5 148 172
6 146 764
7 145 493
8 142 579
9 139 792
10 138 880
11 128 560
12 124 52
13 120 765
14 120 904
15 120 1000
16 118 845
17 109 523
18 107 376
19 105 941
20 104 390
21 98 207
22 98 522
23 96 895
24 89 604
25 82 312
26 81 409
27 80 443
28 78 312
29 78 867
30 77 86
31 74 430
32 73 681
33 69 555
34 66 996
35 62 12
36 57 36
37 56 447
38 54 951
39 54 355
40 50 667
41 45 767
42 44 845
43 44 942
44 35 79
45 35 893
46 32 901
47 31 423
48 30 921
49 28 16
50 22 250
